\* Problem: Unknown *\

Maximize
 obj: + xp_0_0 + xp_0_1 + xp_0_2 + xp_0_3 + xp_0_4 + xp_0_5 + xp_0_6
 + xp_1_0 + xp_1_1 + xp_1_2 + xp_2_0 + xp_2_1 + xp_2_2 + xp_2_3 + xp_2_4
 + xp_3_0 + xp_3_1 + xp_3_2 + xp_4_0 + xp_5_0 + xp_5_1 + xp_5_2 + xp_6_0
 + xp_7_0 + xp_8_0 + xp_8_1 + xp_9_0 + xp_10_0 + xp_11_0 + xp_11_1
 + xp_11_2 + xp_11_3 + xp_11_4 + xp_11_5 + xp_12_0 + xp_13_0 + xp_13_1
 + xp_14_0 + xp_14_1 + xp_15_0 + xp_16_0 + xp_16_1 + xp_17_0 + xp_17_1
 + xp_17_2 + xp_17_3 + xp_18_0 + xp_18_1 + xp_18_2 + xp_18_3 + xp_18_4
 + xp_19_0 + xp_19_1 + xp_19_2 + xp_19_3 + xp_19_4 + xp_19_5 + xp_20_0
 + xp_20_1 + xp_20_2 + xp_20_3 + xp_21_0 + xp_21_1 + xp_21_2 + xp_21_3
 + xp_21_4 + xp_22_0 + xp_22_1 + xp_22_2 + xp_22_3 + xp_22_4 + xp_23_0
 + xp_23_1 + xp_23_2 + xp_23_3

Subject To
 r_1: 0 xp_0_0 <= 25.9391100702576
 r_2: + xp_22_3 + xp_18_4 + xp_18_2 + xp_5_2 + xp_2_3
 <= 25.9391100702576
 r_3: + xp_23_2 + xp_21_3 + xp_18_3 + xp_8_1 <= 26.5090230242688
 r_4: + xp_17_1 + xp_15_0 <= 27.1553784860558
 r_5: + xp_18_0 <= 25.6427184466019
 r_6: + xp_18_1 <= 26.1838588989845
 r_7: + xp_20_3 <= 25.9391100702576
 r_8: + xp_22_2 + xp_11_2 + xp_5_1 + xp_3_2 + xp_2_2 <= 25.9391100702576
 r_9: + xp_23_3 + xp_11_4 + xp_11_1 + xp_3_1 <= 26.5090230242688
 r_10: + xp_11_5 + xp_3_0 <= 27.1553784860558
 r_11: + xp_18_1 + xp_11_3 + xp_0_6 <= 25.6427184466019
 r_12: + xp_11_0 <= 26.1838588989845
 r_13: 0 xp_0_0 <= 27.941473259334
 r_14: + xp_21_2 + xp_14_0 + xp_0_2 <= 25.9391100702576
 r_15: + xp_21_0 + xp_19_3 <= 26.5090230242688
 r_16: + xp_22_1 + xp_21_4 + xp_19_4 + xp_0_3 + xp_0_1
 <= 27.3778920308483
 r_17: + xp_19_5 + xp_0_0 <= 25.6427184466019
 r_18: + xp_21_3 + xp_4_0 <= 25.9391100702576
 r_19: + xp_19_0 + xp_0_6 <= 25.9391100702576
 r_20: + xp_21_1 + xp_19_2 + xp_19_1 + xp_14_1 + xp_0_5 + xp_0_4
 <= 27.941473259334
 r_21: + xp_20_1 <= 25.9391100702576
 r_22: + xp_21_2 <= 26.5090230242688
 r_23: + xp_22_4 + xp_22_3 + xp_22_2 <= 27.3778920308483
 r_24: + xp_18_4 + xp_17_3 + xp_3_2 + xp_0_5 <= 26.2815479528884
 r_25: 0 xp_0_0 <= 27.941473259334
 r_26: + xp_18_2 + xp_0_4 + xp_0_2 <= 25.6427184466019
 r_27: + xp_11_2 <= 25.9391100702576
 r_28: + xp_19_2 <= 25.9391100702576
 r_29: + xp_20_2 <= 26.5090230242688
 r_30: + xp_2_0 <= 26.5090230242688
 r_31: + xp_23_3 + xp_23_2 + xp_18_3 + xp_11_4 + xp_8_1 + xp_3_1
 + xp_2_4 <= 26.2815479528884
 r_32: + xp_2_1 <= 27.941473259334
 r_33: + xp_11_1 + xp_2_3 <= 26.5090230242688
 r_34: + xp_19_3 + xp_2_2 <= 26.5090230242688
 r_35: 0 xp_0_0 <= 27.3778920308483
 r_36: + xp_9_0 <= 27.3778920308483
 r_37: + xp_21_4 + xp_13_1 + xp_0_3 <= 26.2815479528884
 r_38: + xp_1_1 <= 29.2984869325997
 r_39: + xp_19_4 + xp_17_2 <= 27.1553784860558
 r_40: + xp_0_1 <= 25.6427184466019
 r_41: + xp_12_0 + xp_2_4 <= 26.2815479528884
 r_42: + xp_21_4 <= 26.2815479528884
 r_43: + xp_16_0 <= 26.2815479528884
 r_44: + xp_23_3 + xp_23_2 + xp_23_1 + xp_16_1 + xp_1_2
 <= 29.2984869325997
 r_45: + xp_17_3 + xp_11_4 + xp_3_2 + xp_3_1 <= 27.1553784860558
 r_46: + xp_18_4 + xp_18_3 + xp_0_5 + xp_0_3 <= 25.6427184466019
 r_47: + xp_16_1 + xp_13_1 <= 29.2984869325997
 r_48: + xp_13_0 <= 29.2984869325997
 r_49: 0 xp_0_0 <= 27.1553784860558
 r_50: 0 xp_0_0 <= 25.6427184466019
 r_51: + xp_1_1 <= 27.1553784860558
 r_52: + xp_8_0 + xp_1_2 <= 27.1553784860558
 r_53: + xp_1_0 <= 27.1553784860558
 r_54: 0 xp_0_0 <= 25.6427184466019
 r_55: + xp_11_5 + xp_11_4 + xp_8_1 <= 27.1553784860558
 r_56: + xp_19_4 <= 27.1553784860558
 r_57: + xp_22_1 <= 25.6427184466019
 r_58: + xp_22_4 + xp_17_3 + xp_5_0 <= 25.6427184466019
 r_59: + xp_22_0 + xp_17_2 <= 25.6427184466019
 r_60: + xp_23_1 + xp_6_0 <= 25.6427184466019
 r_61: + xp_23_0 <= 25.6427184466019
 r_62: + xp_17_0 <= 25.6427184466019
 r_63: + xp_23_2 + xp_22_3 + xp_17_1 + xp_11_3 + xp_5_2
 <= 25.6427184466019
 r_64: + xp_23_3 + xp_22_2 + xp_19_5 + xp_5_1 <= 25.6427184466019
 r_65: + xp_20_1 + xp_19_2 + xp_14_1 + xp_2_1 + xp_0_5 + xp_0_4
 <= 27.941473259334
 r_66: + xp_21_1 + xp_20_2 + xp_7_0 <= 27.941473259334
 r_67: + xp_20_3 + xp_19_1 + xp_10_0 <= 27.941473259334
 r_68: + xp_20_0 <= 27.941473259334

Bounds
 0 <= xp_0_0 <= 26.6666666666667
 0 <= xp_0_1 <= 10
 0 <= xp_0_2 <= 6.66666666666667
 0 <= xp_0_3 <= 3.33333333333333
 0 <= xp_0_4 <= 6.66666666666667
 0 <= xp_0_5 <= 3.33333333333333
 0 <= xp_0_6 <= 3.33333333333333
 0 <= xp_1_0 <= 18.4564333333333
 0 <= xp_1_1 <= 15.1231
 0 <= xp_1_2 <= 0.447441666666667
 0 <= xp_2_0 <= 23.72802
 0 <= xp_2_1 <= 3.72802
 0 <= xp_2_2 <= 1.18406
 0 <= xp_2_3 <= 4.51739333333333
 0 <= xp_2_4 <= 0.394686666666667
 0 <= xp_3_0 <= 23.3333333333333
 0 <= xp_3_1 <= 3.33333333333333
 0 <= xp_3_2 <= 3.33333333333333
 0 <= xp_4_0 <= 25.3224
 0 <= xp_5_0 <= 14.068
 0 <= xp_5_1 <= 8.4408
 0 <= xp_5_2 <= 2.8136
 0 <= xp_6_0 <= 22.79016
 0 <= xp_7_0 <= 21.84057
 0 <= xp_8_0 <= 17.44432
 0 <= xp_8_1 <= 2.18054
 0 <= xp_9_0 <= 18.200475
 0 <= xp_10_0 <= 18.200475
 0 <= xp_11_0 <= 25.8694866666667
 0 <= xp_11_1 <= 13.0676066666667
 0 <= xp_11_2 <= 6.13521333333333
 0 <= xp_11_3 <= 6.40094
 0 <= xp_11_4 <= 3.06760666666667
 0 <= xp_11_5 <= 3.06760666666667
 0 <= xp_12_0 <= 17.09262
 0 <= xp_13_0 <= 14.7714
 0 <= xp_13_1 <= 1.846425
 0 <= xp_14_0 <= 14.068
 0 <= xp_14_1 <= 1.7585
 0 <= xp_15_0 <= 15.668235
 0 <= xp_16_0 <= 11.694025
 0 <= xp_16_1 <= 3.34115
 0 <= xp_17_0 <= 26.4439266666667
 0 <= xp_17_1 <= 6.44392666666667
 0 <= xp_17_2 <= 7.77648333333333
 0 <= xp_17_3 <= 3.33333333333333
 0 <= xp_18_0 <= 22.0437733333333
 0 <= xp_18_1 <= 10.6994966666667
 0 <= xp_18_2 <= 4.67761
 0 <= xp_18_3 <= 1.34427666666667
 0 <= xp_18_4 <= 3.33333333333333
 0 <= xp_19_0 <= 23.874565
 0 <= xp_19_1 <= 2.58304333333333
 0 <= xp_19_2 <= 2.58304333333333
 0 <= xp_19_3 <= 10
 0 <= xp_19_4 <= 1.29152166666667
 0 <= xp_19_5 <= 1.29152166666667
 0 <= xp_20_0 <= 25.7405266666667
 0 <= xp_20_1 <= 6.94412333333333
 0 <= xp_20_2 <= 2.40719333333333
 0 <= xp_20_3 <= 5.74052666666667
 0 <= xp_21_0 <= 18.68699
 0 <= xp_21_1 <= 1.01016166666667
 0 <= xp_21_2 <= 6.36381833333333
 0 <= xp_21_3 <= 2.02032333333333
 0 <= xp_21_4 <= 11.0101616666667
 0 <= xp_22_0 <= 17.5048916666667
 0 <= xp_22_1 <= 4.167645
 0 <= xp_22_2 <= 4.167645
 0 <= xp_22_3 <= 4.167645
 0 <= xp_22_4 <= 7.50097833333333
 0 <= xp_23_0 <= 26.67058
 0 <= xp_23_1 <= 1.66862333333333
 0 <= xp_23_2 <= 5.00195666666667
 0 <= xp_23_3 <= 4.167645

End
